(declare-fun bvlambda_11_ ()Bool         )
(declare-fun a92 () (Array (_ BitVec 1) (_ BitVec 4)))
(assert
(let (($e22 (_ bv0  4)))
(let (($e159 (store a92 true               $e22 )))
(
                 extract(select $e159(not bvlambda_11_))
                                                                                                                                                                                                                                                                                                                                                                                                                                                                                                                                                                       ) )                                                                                                            )                     )
